c Source: TUDataset PTC_MR, graph #200
c Original: n=17, m=19
c Augmented: +8 edges, n=19 -> m=27, circuit_rank=9
c Augmented to satisfy Eulerian condition (no parallel edges)
p sp 19
e 5 7
e 15 17
e 9 10
e 1 2
e 10 11
e 5 6
e 7 9
e 7 15
e 15 16
e 3 5
e 2 3
e 11 12
e 12 14
e 2 15
e 7 8
e 9 14
e 3 4
e 12 13
e 2 14
e 1 3
e 4 5
e 6 8
e 9 18
e 14 18
e 12 19
e 13 19
e 16 17
